50
    1   415   415
    2   152   152
    3   464   464
    4   460   460
    5   374   374
    6   434   434
    7   395   395
    8   374   374
    9   248   248
   10   379   379
   11   437   437
   12   407   407
   13   429   429
   14   463   463
   15    43    43
   16   145   145
   17   361   361
   18    44    44
   19   378   378
   20    64    64
   21   355   355
   22     9     9
   23   383   383
   24    57    57
   25   216   216
   26   205   205
   27   184   184
   28   472   472
   29    28    28
   30   313   313
   31   128   128
   32   426   426
   33   225   225
   34   488   488
   35   440   440
   36   432   432
   37   389   389
   38   212   212
   39    30    30
   40    39    39
   41    53    53
   42   275   275
   43   223   223
   44   281   281
   45   376   376
   46   426   426
   47   254   254
   48   458   458
   49   440   440
   50   123   123
12005
